p tw 100 13501 2 
1 3 
1 4 
1 5 
1 6 
1 7 
1 8 
1 9 
1 10 
1 11 
1 20 
1 21 
1 29 
1 31 
1 38 
1 41 
1 47 
1 51 
1 56 
1 61 
1 65 
1 71 
1 74 
1 81 
1 83 
1 91 
1 92 
2 3 
2 4 
2 5 
2 6 
2 7 
2 8 
2 9 
2 10 
2 11 
2 12 
2 22 
2 30 
2 32 
2 39 
2 42 
2 48 
2 52 
2 57 
2 62 
2 66 
2 72 
2 75 
2 82 
2 84 
2 92 
2 93 
3 4 
3 5 
3 6 
3 7 
3 8 
3 9 
3 10 
3 12 
3 13 
3 21 
3 23 
3 33 
3 40 
3 43 
3 49 
3 53 
3 58 
3 63 
3 67 
3 73 
3 76 
3 83 
3 85 
3 93 
3 94 
4 5 
4 6 
4 7 
4 8 
4 9 
4 10 
4 13 
4 14 
4 22 
4 24 
4 31 
4 34 
4 44 
4 50 
4 54 
4 59 
4 64 
4 68 
4 74 
4 77 
4 84 
4 86 
4 94 
4 95 
5 6 
5 7 
5 8 
5 9 
5 10 
5 14 
5 15 
5 23 
5 25 
5 32 
5 35 
5 41 
5 45 
5 55 
5 60 
5 65 
5 69 
5 75 
5 78 
5 85 
5 87 
5 95 
5 96 
6 7 
6 8 
6 9 
6 10 
6 15 
6 16 
6 24 
6 26 
6 33 
6 36 
6 42 
6 46 
6 51 
6 56 
6 66 
6 70 
6 76 
6 79 
6 86 
6 88 
6 96 
6 97 
7 8 
7 9 
7 10 
7 16 
7 17 
7 25 
7 27 
7 34 
7 37 
7 43 
7 47 
7 52 
7 57 
7 61 
7 67 
7 77 
7 80 
7 87 
7 89 
7 97 
7 98 
8 9 
8 10 
8 17 
8 18 
8 26 
8 28 
8 35 
8 38 
8 44 
8 48 
8 53 
8 58 
8 62 
8 68 
8 71 
8 78 
8 88 
8 90 
8 98 
8 99 
9 10 
9 18 
9 19 
9 27 
9 29 
9 36 
9 39 
9 45 
9 49 
9 54 
9 59 
9 63 
9 69 
9 72 
9 79 
9 81 
9 89 
9 99 
9 100 
10 19 
10 20 
10 28 
10 30 
10 37 
10 40 
10 46 
10 50 
10 55 
10 60 
10 64 
10 70 
10 73 
10 80 
10 82 
10 90 
10 91 
10 100 
11 12 
11 13 
11 14 
11 15 
11 16 
11 17 
11 18 
11 19 
11 20 
11 21 
11 30 
11 31 
11 39 
11 41 
11 48 
11 51 
11 57 
11 61 
11 66 
11 71 
11 75 
11 81 
11 84 
11 91 
11 93 
12 13 
12 14 
12 15 
12 16 
12 17 
12 18 
12 19 
12 20 
12 21 
12 22 
12 32 
12 40 
12 42 
12 49 
12 52 
12 58 
12 62 
12 67 
12 72 
12 76 
12 82 
12 85 
12 92 
12 94 
13 14 
13 15 
13 16 
13 17 
13 18 
13 19 
13 20 
13 22 
13 23 
13 31 
13 33 
13 43 
13 50 
13 53 
13 59 
13 63 
13 68 
13 73 
13 77 
13 83 
13 86 
13 93 
13 95 
14 15 
14 16 
14 17 
14 18 
14 19 
14 20 
14 23 
14 24 
14 32 
14 34 
14 41 
14 44 
14 54 
14 60 
14 64 
14 69 
14 74 
14 78 
14 84 
14 87 
14 94 
14 96 
15 16 
15 17 
15 18 
15 19 
15 20 
15 24 
15 25 
15 33 
15 35 
15 42 
15 45 
15 51 
15 55 
15 65 
15 70 
15 75 
15 79 
15 85 
15 88 
15 95 
15 97 
16 17 
16 18 
16 19 
16 20 
16 25 
16 26 
16 34 
16 36 
16 43 
16 46 
16 52 
16 56 
16 61 
16 66 
16 76 
16 80 
16 86 
16 89 
16 96 
16 98 
17 18 
17 19 
17 20 
17 26 
17 27 
17 35 
17 37 
17 44 
17 47 
17 53 
17 57 
17 62 
17 67 
17 71 
17 77 
17 87 
17 90 
17 97 
17 99 
18 19 
18 20 
18 27 
18 28 
18 36 
18 38 
18 45 
18 48 
18 54 
18 58 
18 63 
18 68 
18 72 
18 78 
18 81 
18 88 
18 98 
18 100 
19 20 
19 28 
19 29 
19 37 
19 39 
19 46 
19 49 
19 55 
19 59 
19 64 
19 69 
19 73 
19 79 
19 82 
19 89 
19 91 
19 99 
20 29 
20 30 
20 38 
20 40 
20 47 
20 50 
20 56 
20 60 
20 65 
20 70 
20 74 
20 80 
20 83 
20 90 
20 92 
20 100 
21 22 
21 23 
21 24 
21 25 
21 26 
21 27 
21 28 
21 29 
21 30 
21 31 
21 40 
21 41 
21 49 
21 51 
21 58 
21 61 
21 67 
21 71 
21 76 
21 81 
21 85 
21 91 
21 94 
22 23 
22 24 
22 25 
22 26 
22 27 
22 28 
22 29 
22 30 
22 31 
22 32 
22 42 
22 50 
22 52 
22 59 
22 62 
22 68 
22 72 
22 77 
22 82 
22 86 
22 92 
22 95 
23 24 
23 25 
23 26 
23 27 
23 28 
23 29 
23 30 
23 32 
23 33 
23 41 
23 43 
23 53 
23 60 
23 63 
23 69 
23 73 
23 78 
23 83 
23 87 
23 93 
23 96 
24 25 
24 26 
24 27 
24 28 
24 29 
24 30 
24 33 
24 34 
24 42 
24 44 
24 51 
24 54 
24 64 
24 70 
24 74 
24 79 
24 84 
24 88 
24 94 
24 97 
25 26 
25 27 
25 28 
25 29 
25 30 
25 34 
25 35 
25 43 
25 45 
25 52 
25 55 
25 61 
25 65 
25 75 
25 80 
25 85 
25 89 
25 95 
25 98 
26 27 
26 28 
26 29 
26 30 
26 35 
26 36 
26 44 
26 46 
26 53 
26 56 
26 62 
26 66 
26 71 
26 76 
26 86 
26 90 
26 96 
26 99 
27 28 
27 29 
27 30 
27 36 
27 37 
27 45 
27 47 
27 54 
27 57 
27 63 
27 67 
27 72 
27 77 
27 81 
27 87 
27 97 
27 100 
28 29 
28 30 
28 37 
28 38 
28 46 
28 48 
28 55 
28 58 
28 64 
28 68 
28 73 
28 78 
28 82 
28 88 
28 91 
28 98 
29 30 
29 38 
29 39 
29 47 
29 49 
29 56 
29 59 
29 65 
29 69 
29 74 
29 79 
29 83 
29 89 
29 92 
29 99 
30 39 
30 40 
30 48 
30 50 
30 57 
30 60 
30 66 
30 70 
30 75 
30 80 
30 84 
30 90 
30 93 
30 100 
31 32 
31 33 
31 34 
31 35 
31 36 
31 37 
31 38 
31 39 
31 40 
31 41 
31 50 
31 51 
31 59 
31 61 
31 68 
31 71 
31 77 
31 81 
31 86 
31 91 
31 95 
32 33 
32 34 
32 35 
32 36 
32 37 
32 38 
32 39 
32 40 
32 41 
32 42 
32 52 
32 60 
32 62 
32 69 
32 72 
32 78 
32 82 
32 87 
32 92 
32 96 
33 34 
33 35 
33 36 
33 37 
33 38 
33 39 
33 40 
33 42 
33 43 
33 51 
33 53 
33 63 
33 70 
33 73 
33 79 
33 83 
33 88 
33 93 
33 97 
34 35 
34 36 
34 37 
34 38 
34 39 
34 40 
34 43 
34 44 
34 52 
34 54 
34 61 
34 64 
34 74 
34 80 
34 84 
34 89 
34 94 
34 98 
35 36 
35 37 
35 38 
35 39 
35 40 
35 44 
35 45 
35 53 
35 55 
35 62 
35 65 
35 71 
35 75 
35 85 
35 90 
35 95 
35 99 
36 37 
36 38 
36 39 
36 40 
36 45 
36 46 
36 54 
36 56 
36 63 
36 66 
36 72 
36 76 
36 81 
36 86 
36 96 
36 100 
37 38 
37 39 
37 40 
37 46 
37 47 
37 55 
37 57 
37 64 
37 67 
37 73 
37 77 
37 82 
37 87 
37 91 
37 97 
38 39 
38 40 
38 47 
38 48 
38 56 
38 58 
38 65 
38 68 
38 74 
38 78 
38 83 
38 88 
38 92 
38 98 
39 40 
39 48 
39 49 
39 57 
39 59 
39 66 
39 69 
39 75 
39 79 
39 84 
39 89 
39 93 
39 99 
40 49 
40 50 
40 58 
40 60 
40 67 
40 70 
40 76 
40 80 
40 85 
40 90 
40 94 
40 100 
41 42 
41 43 
41 44 
41 45 
41 46 
41 47 
41 48 
41 49 
41 50 
41 51 
41 60 
41 61 
41 69 
41 71 
41 78 
41 81 
41 87 
41 91 
41 96 
42 43 
42 44 
42 45 
42 46 
42 47 
42 48 
42 49 
42 50 
42 51 
42 52 
42 62 
42 70 
42 72 
42 79 
42 82 
42 88 
42 92 
42 97 
43 44 
43 45 
43 46 
43 47 
43 48 
43 49 
43 50 
43 52 
43 53 
43 61 
43 63 
43 73 
43 80 
43 83 
43 89 
43 93 
43 98 
44 45 
44 46 
44 47 
44 48 
44 49 
44 50 
44 53 
44 54 
44 62 
44 64 
44 71 
44 74 
44 84 
44 90 
44 94 
44 99 
45 46 
45 47 
45 48 
45 49 
45 50 
45 54 
45 55 
45 63 
45 65 
45 72 
45 75 
45 81 
45 85 
45 95 
45 100 
46 47 
46 48 
46 49 
46 50 
46 55 
46 56 
46 64 
46 66 
46 73 
46 76 
46 82 
46 86 
46 91 
46 96 
47 48 
47 49 
47 50 
47 56 
47 57 
47 65 
47 67 
47 74 
47 77 
47 83 
47 87 
47 92 
47 97 
48 49 
48 50 
48 57 
48 58 
48 66 
48 68 
48 75 
48 78 
48 84 
48 88 
48 93 
48 98 
49 50 
49 58 
49 59 
49 67 
49 69 
49 76 
49 79 
49 85 
49 89 
49 94 
49 99 
50 59 
50 60 
50 68 
50 70 
50 77 
50 80 
50 86 
50 90 
50 95 
50 100 
51 52 
51 53 
51 54 
51 55 
51 56 
51 57 
51 58 
51 59 
51 60 
51 61 
51 70 
51 71 
51 79 
51 81 
51 88 
51 91 
51 97 
52 53 
52 54 
52 55 
52 56 
52 57 
52 58 
52 59 
52 60 
52 61 
52 62 
52 72 
52 80 
52 82 
52 89 
52 92 
52 98 
53 54 
53 55 
53 56 
53 57 
53 58 
53 59 
53 60 
53 62 
53 63 
53 71 
53 73 
53 83 
53 90 
53 93 
53 99 
54 55 
54 56 
54 57 
54 58 
54 59 
54 60 
54 63 
54 64 
54 72 
54 74 
54 81 
54 84 
54 94 
54 100 
55 56 
55 57 
55 58 
55 59 
55 60 
55 64 
55 65 
55 73 
55 75 
55 82 
55 85 
55 91 
55 95 
56 57 
56 58 
56 59 
56 60 
56 65 
56 66 
56 74 
56 76 
56 83 
56 86 
56 92 
56 96 
57 58 
57 59 
57 60 
57 66 
57 67 
57 75 
57 77 
57 84 
57 87 
57 93 
57 97 
58 59 
58 60 
58 67 
58 68 
58 76 
58 78 
58 85 
58 88 
58 94 
58 98 
59 60 
59 68 
59 69 
59 77 
59 79 
59 86 
59 89 
59 95 
59 99 
60 69 
60 70 
60 78 
60 80 
60 87 
60 90 
60 96 
60 100 
61 62 
61 63 
61 64 
61 65 
61 66 
61 67 
61 68 
61 69 
61 70 
61 71 
61 80 
61 81 
61 89 
61 91 
61 98 
62 63 
62 64 
62 65 
62 66 
62 67 
62 68 
62 69 
62 70 
62 71 
62 72 
62 82 
62 90 
62 92 
62 99 
63 64 
63 65 
63 66 
63 67 
63 68 
63 69 
63 70 
63 72 
63 73 
63 81 
63 83 
63 93 
63 100 
64 65 
64 66 
64 67 
64 68 
64 69 
64 70 
64 73 
64 74 
64 82 
64 84 
64 91 
64 94 
65 66 
65 67 
65 68 
65 69 
65 70 
65 74 
65 75 
65 83 
65 85 
65 92 
65 95 
66 67 
66 68 
66 69 
66 70 
66 75 
66 76 
66 84 
66 86 
66 93 
66 96 
67 68 
67 69 
67 70 
67 76 
67 77 
67 85 
67 87 
67 94 
67 97 
68 69 
68 70 
68 77 
68 78 
68 86 
68 88 
68 95 
68 98 
69 70 
69 78 
69 79 
69 87 
69 89 
69 96 
69 99 
70 79 
70 80 
70 88 
70 90 
70 97 
70 100 
71 72 
71 73 
71 74 
71 75 
71 76 
71 77 
71 78 
71 79 
71 80 
71 81 
71 90 
71 91 
71 99 
72 73 
72 74 
72 75 
72 76 
72 77 
72 78 
72 79 
72 80 
72 81 
72 82 
72 92 
72 100 
73 74 
73 75 
73 76 
73 77 
73 78 
73 79 
73 80 
73 82 
73 83 
73 91 
73 93 
74 75 
74 76 
74 77 
74 78 
74 79 
74 80 
74 83 
74 84 
74 92 
74 94 
75 76 
75 77 
75 78 
75 79 
75 80 
75 84 
75 85 
75 93 
75 95 
76 77 
76 78 
76 79 
76 80 
76 85 
76 86 
76 94 
76 96 
77 78 
77 79 
77 80 
77 86 
77 87 
77 95 
77 97 
78 79 
78 80 
78 87 
78 88 
78 96 
78 98 
79 80 
79 88 
79 89 
79 97 
79 99 
80 89 
80 90 
80 98 
80 100 
81 82 
81 83 
81 84 
81 85 
81 86 
81 87 
81 88 
81 89 
81 90 
81 91 
81 100 
82 83 
82 84 
82 85 
82 86 
82 87 
82 88 
82 89 
82 90 
82 91 
82 92 
83 84 
83 85 
83 86 
83 87 
83 88 
83 89 
83 90 
83 92 
83 93 
84 85 
84 86 
84 87 
84 88 
84 89 
84 90 
84 93 
84 94 
85 86 
85 87 
85 88 
85 89 
85 90 
85 94 
85 95 
86 87 
86 88 
86 89 
86 90 
86 95 
86 96 
87 88 
87 89 
87 90 
87 96 
87 97 
88 89 
88 90 
88 97 
88 98 
89 90 
89 98 
89 99 
90 99 
90 100 
91 92 
91 93 
91 94 
91 95 
91 96 
91 97 
91 98 
91 99 
91 100 
92 93 
92 94 
92 95 
92 96 
92 97 
92 98 
92 99 
92 100 
93 94 
93 95 
93 96 
93 97 
93 98 
93 99 
93 100 
94 95 
94 96 
94 97 
94 98 
94 99 
94 100 
95 96 
95 97 
95 98 
95 99 
95 100 
96 97 
96 98 
96 99 
96 100 
97 98 
97 99 
97 100 
98 99 
98 100 
99 100 
